h 4 5 0
4555189161041788740 -10 0
4195561617350115099 -12 0
h -4 13 0
3320347093938172117 -13 0
h 15 0
1017712833492232353 -18 0
h -15 -20 0
h 19 -5 -15 0
1558686677985956148 -19 0
h 14 0
3176380429591814111 -21 0
560938692021068285 -22 0
h 20 5 23 0
61927568288404762 -23 0
